p edge 50 275 38
e 7 19
e 7 49
e 7 21
e 7 30
e 7 41
e 7 27
e 7 29
e 7 1
e 7 13
e 7 40
e 7 8
e 19 36
e 19 5
e 19 6
e 19 49
e 19 14
e 19 1
e 19 2
e 19 4
e 19 11
e 19 32
e 17 21
e 17 23
e 17 32
e 17 12
e 17 20
e 17 31
e 17 24
e 17 40
e 17 42
e 17 3
e 17 28
e 21 39
e 21 43
e 21 27
e 21 29
e 21 18
e 21 12
e 21 8
e 21 35
e 21 44
e 25 34
e 25 45
e 25 38
e 25 40
e 25 5
e 25 20
e 25 16
e 25 18
e 25 50
e 25 10
e 25 14
e 34 14
e 34 15
e 34 24
e 34 30
e 34 5
e 34 31
e 34 20
e 34 33
e 34 35
e 34 23
e 14 20
e 14 38
e 14 3
e 14 44
e 14 28
e 14 48
e 14 10
e 14 32
e 26 33
e 26 35
e 26 44
e 26 16
e 26 3
e 26 46
e 26 5
e 26 36
e 26 8
e 26 31
e 26 40
e 33 30
e 33 9
e 33 22
e 33 49
e 33 42
e 33 32
e 33 37
e 33 39
e 33 48
e 20 47
e 20 8
e 20 46
e 20 23
e 20 32
e 20 31
e 20 24
e 47 49
e 47 22
e 47 2
e 47 46
e 47 8
e 47 50
e 47 36
e 47 28
e 47 4
e 47 27
e 45 46
e 45 40
e 45 50
e 45 15
e 45 32
e 45 28
e 45 41
e 45 16
e 45 3
e 45 5
e 46 11
e 46 41
e 46 30
e 46 3
e 46 9
e 46 37
e 46 29
e 36 43
e 36 2
e 36 15
e 36 31
e 36 1
e 36 39
e 36 18
e 36 6
e 43 42
e 43 4
e 43 48
e 43 41
e 43 3
e 43 37
e 43 39
e 43 27
e 43 5
e 42 50
e 42 30
e 42 5
e 42 22
e 42 23
e 42 49
e 42 4
e 42 13
e 50 2
e 50 9
e 50 48
e 50 12
e 50 35
e 50 1
e 50 38
e 2 32
e 2 11
e 2 29
e 2 22
e 2 12
e 2 35
e 2 37
e 32 41
e 32 30
e 32 22
e 32 29
e 30 44
e 30 13
e 30 41
e 30 6
e 30 15
e 49 22
e 49 48
e 49 37
e 49 40
e 49 38
e 49 23
e 9 10
e 9 4
e 9 35
e 9 37
e 9 11
e 9 31
e 9 24
e 9 6
e 10 11
e 10 18
e 10 15
e 10 38
e 10 40
e 10 35
e 10 39
e 10 16
e 6 11
e 6 29
e 6 13
e 6 31
e 6 15
e 6 12
e 6 35
e 11 41
e 11 16
e 11 29
e 11 13
e 11 3
e 39 24
e 39 13
e 39 1
e 39 18
e 39 8
e 39 15
e 18 22
e 18 15
e 18 13
e 18 35
e 18 37
e 18 41
e 22 44
e 22 4
e 22 27
e 22 12
e 29 23
e 29 44
e 29 13
e 29 3
e 1 24
e 1 38
e 1 12
e 1 48
e 1 23
e 1 16
e 24 16
e 24 5
e 24 37
e 24 48
e 24 23
e 15 41
e 15 31
e 15 28
e 41 3
e 41 31
e 16 13
e 16 44
e 16 48
e 16 8
e 8 38
e 8 31
e 8 48
e 8 3
e 23 38
e 23 40
e 23 44
e 35 44
e 35 4
e 44 37
e 44 40
e 38 12
e 38 4
e 38 27
e 13 28
e 13 48
e 40 12
e 40 4
e 28 5
e 28 12
e 28 27
e 28 31
e 28 4
e 3 5
e 5 27
e 37 48
e 37 27
e 12 27
e 4 27
